branch-and-cut/resultados/B/b05.sol
# Objective value = 6.1000000000000021e+01
e[0,6] 0
e[6,0] 0
e[0,17] 0
e[17,0] 0
e[0,34] 0
e[34,0] 0
e[1,15] 0
e[15,1] 0
e[1,27] 0
e[27,1] 0
e[1,46] 0
e[46,1] 0
e[2,19] 1
e[19,2] 1
e[2,38] 0
e[38,2] 0
e[3,1] 0
e[1,3] 0
e[3,23] 0
e[23,3] 0
e[3,36] 0
e[36,3] 0
e[3,40] 0
e[40,3] 0
e[3,48] 0
e[48,3] 0
e[4,47] 0
e[47,4] 0
e[5,11] 0
e[11,5] 0
e[5,17] 0
e[17,5] 0
e[5,20] 0
e[20,5] 0
e[5,25] 0
e[25,5] 0
e[5,45] 0
e[45,5] 0
e[5,49] 0
e[49,5] 0
e[8,20] 0
e[20,8] 0
e[8,24] 0
e[24,8] 0
e[8,35] 0
e[35,8] 0
e[9,12] 1
e[12,9] 1
e[9,18] 0
e[18,9] 0
e[9,39] 0
e[39,9] 0
e[10,29] 0
e[29,10] 0
e[11,1] 0
e[1,11] 0
e[11,16] 0
e[16,11] 0
e[11,34] 0
e[34,11] 0
e[13,2] 1
e[2,13] 1
e[14,11] 0
e[11,14] 0
e[15,20] 1
e[20,15] 1
e[16,20] 0
e[20,16] 0
e[16,45] 0
e[45,16] 0
e[17,4] 1
e[4,17] 1
e[17,9] 1
e[9,17] 1
e[17,45] 1
e[45,17] 1
e[19,18] 0
e[18,19] 0
e[19,38] 1
e[38,19] 1
e[19,48] 1.0000000000000016e+00
e[48,19] 1.0000000000000016e+00
e[20,0] 0
e[0,20] 0
e[20,2] 1.0000000000000031e+00
e[2,20] 1.0000000000000031e+00
e[20,36] 1
e[36,20] 1
e[20,48] 0
e[48,20] 0
e[22,9] 0
e[9,22] 0
e[22,32] 0
e[32,22] 0
e[22,33] 0
e[33,22] 0
e[22,42] 1
e[42,22] 1
e[23,13] 1
e[13,23] 1
e[23,44] 0
e[44,23] 0
e[24,4] 1
e[4,24] 1
e[24,13] 0
e[13,24] 0
e[24,14] 1
e[14,24] 1
e[24,29] 0
e[29,24] 0
e[24,42] 1
e[42,24] 1
e[24,47] 0
e[47,24] 0
e[25,30] 0
e[30,25] 0
e[25,47] 0
e[47,25] 0
e[26,16] 0
e[16,26] 0
e[26,47] 0
e[47,26] 0
e[27,3] 0
e[3,27] 0
e[29,27] 0
e[27,29] 0
e[30,22] 1
e[22,30] 1
e[30,28] 0
e[28,30] 0
e[31,0] 0
e[0,31] 0
e[31,10] 0
e[10,31] 0
e[31,29] 0
e[29,31] 0
e[31,35] 0
e[35,31] 0
e[33,2] 0
e[2,33] 0
e[33,36] 0
e[36,33] 0
e[35,7] 0
e[7,35] 0
e[35,23] 0
e[23,35] 0
e[36,7] 0
e[7,36] 0
e[36,18] 0
e[18,36] 0
e[36,39] 0
e[39,36] 0
e[37,44] 0
e[44,37] 0
e[39,0] 0
e[0,39] 0
e[41,5] 0
e[5,41] 0
e[41,8] 0
e[8,41] 0
e[41,15] 0
e[15,41] 0
e[41,22] 0
e[22,41] 0
e[41,26] 0
e[26,41] 0
e[41,31] 0
e[31,41] 0
e[41,43] 0
e[43,41] 0
e[41,48] 0
e[48,41] 0
e[43,10] 0
e[10,43] 0
e[43,18] 0
e[18,43] 0
e[44,7] 0
e[7,44] 0
e[44,35] 0
e[35,44] 0
e[44,41] 0
e[41,44] 0
e[45,6] 1
e[6,45] 1
e[45,35] 0
e[35,45] 0
e[45,37] 0
e[37,45] 0
e[46,19] 1
e[19,46] 1
e[46,21] 0
e[21,46] 0
e[46,45] 1
e[45,46] 1
e[48,4] 0
e[4,48] 0
e[48,34] 1
e[34,48] 1
e[48,37] 0
e[37,48] 0
